(set-logic ALL)
(declare-const k Int)
(declare-fun %b () (_ BitVec k))
(assert (let ((_let_0 (psign_extend 1 %b))) (let ((_let_1 (bvadd %b %b))) (and (= (bvadd _let_0 _let_0) (psign_extend 1 _let_1)) (not (= _let_1 (bvshl %b (_ bv0 k))))))))
(check-sat)